WARNING: for repeatability, setting FPU to use double precision
============================[ Problem Statistics ]=============================
|                                                                             |
|  Number of variables:           100                                         |
|  Number of clauses:             449                                         |
|  Parse time:                   0.00 s                                       |
|  Eliminated clauses:           0.00 Mb                                      |
|  Simplification time:          0.00 s                                       |
|                                                                             |
============================[ Search Statistics ]==============================
| Conflicts |          ORIGINAL         |          LEARNT          | Progress |
|           |    Vars  Clauses Literals |    Limit  Clauses Lit/Cl |          |
===============================================================================
|       100 |      99      447     1343 |      163      100      7 |  0.010 % |
|       250 |      98      432     1298 |      180       47      6 |  1.020 % |
===============================================================================
restarts              : 3
conflicts             : 368            (271587 /sec)
decisions             : 448            (0.00 % random) (330627 /sec)
propagations          : 8074           (5958672 /sec)
conflict literals     : 2179           (20.79 % deleted)
Memory used           : 13.00 MB
CPU time              : 0.001355 s

SATISFIABLE
